p tw 26 39
1 5
1 22
1 24
2 5
2 8
2 20
3 11
3 15
3 25
4 12
4 19
4 24
5 7
6 11
6 14
6 26
7 14
7 19
8 14
8 21
9 12
9 13
9 21
10 22
10 23
10 25
11 16
12 23
13 20
13 25
15 18
15 26
16 18
16 24
17 18
17 19
17 23
20 22
21 26
